(declare-const X String)
; /\?spl=\d&br=[^&]+&vers=[^&]+&s=/H
(assert (str.in_re X (re.++ (str.to_re "/?spl=") (re.range "0" "9") (str.to_re "&br=") (re.+ (re.comp (str.to_re "&"))) (str.to_re "&vers=") (re.+ (re.comp (str.to_re "&"))) (str.to_re "&s=/H\u{a}"))))
; www\.iggsey\.com\sX-Mailer\x3a[^\n\r]*on\x3Acom\x3E2\x2E41Client
(assert (str.in_re X (re.++ (str.to_re "www.iggsey.com") (re.union (str.to_re " ") (str.to_re "\u{9}") (str.to_re "\u{a}") (str.to_re "\u{c}") (str.to_re "\u{d}")) (str.to_re "X-Mailer:\u{13}") (re.* (re.union (str.to_re "\u{a}") (str.to_re "\u{d}"))) (str.to_re "on:com>2.41Client\u{a}"))))
; on\w+Host\x3AComputerKeylogger\x2EcomHost\x3AUser-Agent\x3A
(assert (not (str.in_re X (re.++ (str.to_re "on") (re.+ (re.union (re.range "0" "9") (re.range "A" "Z") (re.range "a" "z") (str.to_re "_"))) (str.to_re "Host:ComputerKeylogger.comHost:User-Agent:\u{a}")))))
; \x28\x29\s+WatchDog\sNetspy\d+pjpoptwql\x2frlnjX-Mailer\x3aHost\x3asnprtz\x7Cdialnoref\x3D\x25user\x5Fid
(assert (not (str.in_re X (re.++ (str.to_re "()") (re.+ (re.union (str.to_re " ") (str.to_re "\u{9}") (str.to_re "\u{a}") (str.to_re "\u{c}") (str.to_re "\u{d}"))) (str.to_re "WatchDog") (re.union (str.to_re " ") (str.to_re "\u{9}") (str.to_re "\u{a}") (str.to_re "\u{c}") (str.to_re "\u{d}")) (str.to_re "Netspy") (re.+ (re.range "0" "9")) (str.to_re "pjpoptwql/rlnjX-Mailer:\u{13}Host:snprtz|dialnoref=%user_id\u{a}")))))
(check-sat)
